914330
33 26 15458
26 37 14546
37 30 941
30 20 17244
20 32 24202
32 5 3290
5 24 63665
24 22 45980
22 4 23621
4 19 26533
19 40 13572
40 18 18404
18 27 12606
27 2 15288
2 21 11546
21 1 6578
1 10 6947
10 35 6355
35 11 5412
11 8 17581
8 15 26227
15 16 36816
16 17 43849
17 3 50824
3 14 30026
14 9 137648
9 6 47658
6 36 22446
36 7 11794
7 29 22890
29 38 745
38 23 7449
23 13 20028
13 28 6411
28 31 12751
31 39 9087
39 25 4093
25 34 30137
34 12 39715
12 33 3967
